c clasp version 2.1.1
c Reading from pb_400_01.cnf
c Solving...
s UNKNOWN

c TIME LIMIT    : 1
c Models        : 0+    
c Time          : 99999.950s (Solving: 99997.76s 1st Model: 0.00s Unsat: 0.00s)
c CPU Time      : 99838.360s
c Choices       : 153766396
c Conflicts     : 104816346
c Restarts      : 31     (Average: 3381172.45 Last: 73632223)

c Variables     : 638054 (Eliminated:   13 Frozen:    0)
c Constraints   : 731721 (Binary: 57.7% Ternary: 41.0% Other:  1.3%)
c Lemmas        : 104816346 (Binary:  0.0% Ternary:  0.0% Other:100.0%)
c   Conflict    : 104816346 (Average Length: 862.1) 
c   Loop        : 0      (Average Length: 0.0) 
c   Other       : 0      (Average Length: 0.0)
c   Deleted     : 104683032
